
Gurobi 9.0.2 (win64) logging started Mon Oct 25 10:48:33 2021

Changed value of parameter LogFile to logs\CRVRP_10-3-7-100_0_1.LOG
   Prev: logs\CRVRP_10-3-7-100_0_0.LOG  Default: 
Changed value of parameter Seed to 1041775247
   Prev: 1904331822  Min: 0  Max: 2000000000  Default: 0
Parameter Threads unchanged
   Value: 2  Min: 0  Max: 1024  Default: 0
Parameter TimeLimit unchanged
   Value: 600.0  Min: 0.0  Max: inf  Default: inf
Parameter Symmetry unchanged
   Value: 2  Min: -1  Max: 2  Default: -1
Parameter Cuts unchanged
   Value: 2  Min: -1  Max: 3  Default: -1
Parameter PreDepRow unchanged
   Value: 1  Min: -1  Max: 1  Default: -1
Parameter ScaleFlag unchanged
   Value: 1  Min: -1  Max: 3  Default: -1
Parameter NormAdjust unchanged
   Value: 0  Min: -1  Max: 3  Default: -1
Gurobi Optimizer version 9.0.2 build v9.0.2rc0 (win64)
Optimize a model with 6903 rows, 3980 columns and 27871 nonzeros
Model fingerprint: 0x362e37dd
Variable types: 72 continuous, 3908 integer (2612 binary)
Coefficient statistics:
  Matrix range     [1e+00, 1e+05]
  Objective range  [1e+00, 1e+00]
  Bounds range     [1e+00, 1e+04]
  RHS range        [1e+00, 1e+05]
Presolve removed 0 rows and 1054 columns
Presolve time: 0.00s

Explored 0 nodes (0 simplex iterations) in 0.01 seconds
Thread count was 1 (of 4 available processors)

Solution count 0

Model is infeasible
Best objective -, best bound -, gap -

IIS computed: 1 constraints, 1 bounds
IIS runtime: 0.00 seconds
Discarded solution information

Gurobi 9.0.2 (win64) logging started Mon Oct 25 10:49:09 2021

Changed value of parameter LogFile to logs\CRVRP_10-3-7-100_0_1.LOG
   Prev: logs\CRVRP_10-3-7-100_0_0.LOG  Default: 
Changed value of parameter Seed to 288157537
   Prev: 1068402856  Min: 0  Max: 2000000000  Default: 0
Parameter Threads unchanged
   Value: 2  Min: 0  Max: 1024  Default: 0
Parameter TimeLimit unchanged
   Value: 600.0  Min: 0.0  Max: inf  Default: inf
Parameter Symmetry unchanged
   Value: 2  Min: -1  Max: 2  Default: -1
Parameter Cuts unchanged
   Value: 2  Min: -1  Max: 3  Default: -1
Parameter PreDepRow unchanged
   Value: 1  Min: -1  Max: 1  Default: -1
Parameter ScaleFlag unchanged
   Value: 1  Min: -1  Max: 3  Default: -1
Parameter NormAdjust unchanged
   Value: 0  Min: -1  Max: 3  Default: -1
Gurobi Optimizer version 9.0.2 build v9.0.2rc0 (win64)
Optimize a model with 6903 rows, 3980 columns and 27871 nonzeros
Model fingerprint: 0xb07d88a4
Variable types: 72 continuous, 3908 integer (2612 binary)
Coefficient statistics:
  Matrix range     [1e+00, 1e+06]
  Objective range  [1e+00, 1e+00]
  Bounds range     [1e+00, 1e+04]
  RHS range        [1e+00, 1e+06]
Presolve removed 0 rows and 1054 columns
Presolve time: 0.00s

Explored 0 nodes (0 simplex iterations) in 0.01 seconds
Thread count was 1 (of 4 available processors)

Solution count 0

Model is infeasible
Best objective -, best bound -, gap -

IIS computed: 1 constraints, 1 bounds
IIS runtime: 0.00 seconds
Discarded solution information

Gurobi 9.0.2 (win64) logging started Mon Oct 25 12:15:30 2021

Changed value of parameter LogFile to logs\CRVRP_10-3-7-100_0_1.LOG
   Prev: logs\CRVRP_10-3-7-100_0_0.LOG  Default: 
Changed value of parameter Seed to 1410771278
   Prev: 311221209  Min: 0  Max: 2000000000  Default: 0
Parameter Threads unchanged
   Value: 2  Min: 0  Max: 1024  Default: 0
Parameter TimeLimit unchanged
   Value: 3600.0  Min: 0.0  Max: inf  Default: inf
Parameter Symmetry unchanged
   Value: 2  Min: -1  Max: 2  Default: -1
Parameter Cuts unchanged
   Value: 2  Min: -1  Max: 3  Default: -1
Parameter PreDepRow unchanged
   Value: 1  Min: -1  Max: 1  Default: -1
Parameter ScaleFlag unchanged
   Value: 1  Min: -1  Max: 3  Default: -1
Parameter NormAdjust unchanged
   Value: 0  Min: -1  Max: 3  Default: -1
Gurobi Optimizer version 9.0.2 build v9.0.2rc0 (win64)
Optimize a model with 6895 rows, 3980 columns and 27863 nonzeros
Model fingerprint: 0xfddfed0f
Variable types: 72 continuous, 3908 integer (2612 binary)
Coefficient statistics:
  Matrix range     [1e+00, 1e+06]
  Objective range  [1e+00, 1e+00]
  Bounds range     [1e+00, 1e+04]
  RHS range        [1e+00, 1e+06]
Presolve removed 5044 rows and 2529 columns
Presolve time: 0.14s
Presolved: 1851 rows, 1451 columns, 11883 nonzeros
Variable types: 35 continuous, 1416 integer (1171 binary)

Root relaxation: objective 4.825345e+03, 673 iterations, 0.03 seconds

    Nodes    |    Current Node    |     Objective Bounds      |     Work
 Expl Unexpl |  Obj  Depth IntInf | Incumbent    BestBd   Gap | It/Node Time

     0     0 4825.34542    0   43          - 4825.34542      -     -    0s
     0     0 4883.54558    0   85          - 4883.54558      -     -    0s
     0     0 4922.77550    0   92          - 4922.77550      -     -    0s
     0     0 4961.41627    0   86          - 4961.41627      -     -    0s
     0     0 4961.41627    0   63          - 4961.41627      -     -    0s
     0     0 4961.41627    0   80          - 4961.41627      -     -    1s
     0     0 4961.41627    0   32          - 4961.41627      -     -    1s
     0     0 4961.41627    0   47          - 4961.41627      -     -    2s
     0     0 4961.41627    0   91          - 4961.41627      -     -    2s
     0     0 4961.41627    0   86          - 4961.41627      -     -    2s
     0     0 4961.41627    0   89          - 4961.41627      -     -    2s
     0     0 4961.41627    0   85          - 4961.41627      -     -    2s
     0     0 4961.41627    0   36          - 4961.41627      -     -    2s
     0     0 4961.41627    0   35          - 4961.41627      -     -    3s
     0     0 4961.41627    0   74          - 4961.41627      -     -    3s
     0     0 4961.41627    0   30          - 4961.41627      -     -    3s
     0     2 4961.41627    0   30          - 4961.41627      -     -    4s
     1     5 4961.41627    1   38          - 4961.41627      -   178    5s
*  758   674             137    9877.0556449 4961.41627  49.8%  28.5    7s
   838   675 6227.49847   60   39 9877.05564 4961.41627  49.8%  27.8   10s
   842   678 5182.97765   18   37 9877.05564 4961.41627  49.8%  27.6   16s
   846   680 4961.41627   41   61 9877.05564 4961.41627  49.8%  27.5   20s

Gurobi 9.0.2 (win64) logging started Mon Oct 25 13:23:48 2021

Changed value of parameter LogFile to logs\CRVRP_10-3-7-100_0_1.LOG
   Prev: logs\CRVRP_10-3-7-100_0_0.LOG  Default: 
Changed value of parameter Seed to 1646570122
   Prev: 1929066370  Min: 0  Max: 2000000000  Default: 0
Parameter Threads unchanged
   Value: 2  Min: 0  Max: 1024  Default: 0
Parameter TimeLimit unchanged
   Value: 60.0  Min: 0.0  Max: inf  Default: inf
Parameter Symmetry unchanged
   Value: 2  Min: -1  Max: 2  Default: -1
Parameter Cuts unchanged
   Value: 2  Min: -1  Max: 3  Default: -1
Parameter PreDepRow unchanged
   Value: 1  Min: -1  Max: 1  Default: -1
Parameter ScaleFlag unchanged
   Value: 1  Min: -1  Max: 3  Default: -1
Parameter NormAdjust unchanged
   Value: 0  Min: -1  Max: 3  Default: -1
Gurobi Optimizer version 9.0.2 build v9.0.2rc0 (win64)
Optimize a model with 6904 rows, 3980 columns and 27872 nonzeros
Model fingerprint: 0x38c2de8d
Variable types: 72 continuous, 3908 integer (2612 binary)
Coefficient statistics:
  Matrix range     [1e+00, 1e+06]
  Objective range  [1e+00, 1e+00]
  Bounds range     [1e+00, 1e+04]
  RHS range        [1e+00, 1e+06]
Presolve removed 5866 rows and 3062 columns
Presolve time: 0.11s
Presolved: 1038 rows, 918 columns, 7550 nonzeros
Variable types: 26 continuous, 892 integer (772 binary)

Root relaxation: objective 9.699235e+01, 466 iterations, 0.02 seconds

    Nodes    |    Current Node    |     Objective Bounds      |     Work
 Expl Unexpl |  Obj  Depth IntInf | Incumbent    BestBd   Gap | It/Node Time

     0     0   96.99235    0   53          -   96.99235      -     -    0s
     0     0  109.44940    0   92          -  109.44940      -     -    0s
H    0     0                     383.4299715  109.44940  71.5%     -    0s
H    0     0                     340.4362444  109.44940  67.9%     -    0s
     0     0  110.89342    0   88  340.43624  110.89342  67.4%     -    0s
H    0     0                     286.2202423  110.89342  61.3%     -    0s
     0     0  110.89696    0   85  286.22024  110.89696  61.3%     -    0s
     0     0  112.95313    0  102  286.22024  112.95313  60.5%     -    0s
H    0     0                     281.2788728  112.95313  59.8%     -    0s
     0     0  113.04411    0  116  281.27887  113.04411  59.8%     -    0s
     0     0  113.06107    0  104  281.27887  113.06107  59.8%     -    0s
     0     0  113.06107    0  104  281.27887  113.06107  59.8%     -    0s
     0     0  113.16441    0   98  281.27887  113.16441  59.8%     -    1s
H    0     0                     245.5337350  113.16441  53.9%     -    1s
     0     0  113.18671    0   96  245.53373  113.18671  53.9%     -    1s
     0     0  113.18671    0   97  245.53373  113.18671  53.9%     -    1s
     0     0  114.01602    0   91  245.53373  114.01602  53.6%     -    1s
     0     0  114.02237    0   94  245.53373  114.02237  53.6%     -    1s
     0     0  114.11758    0   85  245.53373  114.11758  53.5%     -    2s
     0     0  114.11758    0   74  245.53373  114.11758  53.5%     -    2s
H    0     0                     235.0628426  114.11758  51.5%     -    2s
H    0     0                     230.0199706  114.30869  50.3%     -    2s
H    0     2                     205.3138646  114.30869  44.3%     -    2s
     0     2  114.30869    0   72  205.31386  114.30869  44.3%     -    2s
H    9    12                     203.7973094  115.69358  43.2%   134    2s
H   86    87                     203.7973094  115.69358  43.2%  58.5    3s
   291   264  144.83327   43   48  203.79731  117.16923  42.5%  39.2    5s
   813   583  143.36123   48   93  203.79731  118.85967  41.7%  31.1   10s
   820   588  170.42939   68  116  203.79731  119.17835  41.5%  30.8   15s
H  850   580                     201.9918440  119.63994  40.8%  37.0   17s
   990   650  184.61893   61   39  201.99184  119.64413  40.8%  40.9   20s
H 1297   759                     201.9918222  119.90951  40.6%  43.0   23s
  1563   858  120.75527   18   85  201.99182  120.31443  40.4%  42.0   25s
  2572  1348  199.81717   42   44  201.99182  120.92045  40.1%  45.0   30s
  3951  2330  128.24455   24   82  201.99182  121.79427  39.7%  42.6   35s
  5025  3042  124.49946   23   75  201.99182  122.35851  39.4%  42.1   40s
  6398  4126  156.13308   50   36  201.99182  122.76616  39.2%  40.5   45s
  7646  4996  131.67015   26   51  201.99182  123.18924  39.0%  39.9   50s
  8536  5645  146.07082   44   48  201.99182  123.45585  38.9%  39.6   55s
  9514  6329  156.65507   72   58  201.99182  123.45585  38.9%  39.4   60s

Cutting planes:
  Gomory: 29
  Cover: 4
  Implied bound: 37
  Projected implied bound: 1
  Clique: 2
  MIR: 27
  Flow cover: 53
  GUB cover: 4
  Inf proof: 10
  Zero half: 17
  RLT: 11
  Relax-and-lift: 2

Explored 9671 nodes (381427 simplex iterations) in 60.01 seconds
Thread count was 2 (of 4 available processors)

Solution count 10: 201.992 201.992 203.797 ... 286.22

Time limit reached
Best objective 2.019918222198e+02, best bound 1.234558460683e+02, gap 38.8808%
Discarded solution information

Gurobi 9.0.2 (win64) logging started Tue Oct 26 10:39:23 2021

Changed value of parameter LogFile to logs\CRVRP_10-3-7-100_0_1.LOG
   Prev: logs\CRVRP_10-3-7-100_0_0.LOG  Default: 
Changed value of parameter Seed to 1901517573
   Prev: 606205615  Min: 0  Max: 2000000000  Default: 0
Parameter Threads unchanged
   Value: 2  Min: 0  Max: 1024  Default: 0
Parameter TimeLimit unchanged
   Value: 60.0  Min: 0.0  Max: inf  Default: inf
Parameter Symmetry unchanged
   Value: 2  Min: -1  Max: 2  Default: -1
Parameter Cuts unchanged
   Value: 2  Min: -1  Max: 3  Default: -1
Parameter PreDepRow unchanged
   Value: 1  Min: -1  Max: 1  Default: -1
Parameter ScaleFlag unchanged
   Value: 1  Min: -1  Max: 3  Default: -1
Parameter NormAdjust unchanged
   Value: 0  Min: -1  Max: 3  Default: -1
Gurobi Optimizer version 9.0.2 build v9.0.2rc0 (win64)
Optimize a model with 6904 rows, 3980 columns and 27872 nonzeros
Model fingerprint: 0x38c2de8d
Variable types: 72 continuous, 3908 integer (2612 binary)
Coefficient statistics:
  Matrix range     [1e+00, 1e+06]
  Objective range  [1e+00, 1e+00]
  Bounds range     [1e+00, 1e+04]
  RHS range        [1e+00, 1e+06]
Presolve removed 5866 rows and 3062 columns
Presolve time: 0.50s
Presolved: 1038 rows, 918 columns, 7550 nonzeros
Variable types: 26 continuous, 892 integer (772 binary)

Root relaxation: objective 9.699235e+01, 523 iterations, 0.05 seconds

    Nodes    |    Current Node    |     Objective Bounds      |     Work
 Expl Unexpl |  Obj  Depth IntInf | Incumbent    BestBd   Gap | It/Node Time

     0     0   96.99235    0   54          -   96.99235      -     -    0s
     0     0  109.59857    0   88          -  109.59857      -     -    0s
H    0     0                     304.2618707  109.59857  64.0%     -    0s
     0     0  109.59857    0   90  304.26187  109.59857  64.0%     -    0s
     0     0  111.22358    0  109  304.26187  111.22358  63.4%     -    1s
H    0     0                     299.5548457  111.22358  62.9%     -    1s
H    0     0                     291.1142168  111.22358  61.8%     -    1s
     0     0  115.21067    0   91  291.11422  115.21067  60.4%     -    2s
H    0     0                     258.0966169  115.21067  55.4%     -    2s
     0     0  115.21067    0   92  258.09662  115.21067  55.4%     -    2s
     0     0  116.35215    0   98  258.09662  116.35215  54.9%     -    2s
H    0     0                     234.3361085  116.35215  50.3%     -    2s
     0     0  116.44296    0  104  234.33611  116.44296  50.3%     -    3s
     0     0  116.44444    0  105  234.33611  116.44444  50.3%     -    4s

Gurobi 9.0.2 (win64) logging started Tue Oct 26 10:49:46 2021

Changed value of parameter LogFile to logs\CRVRP_10-3-7-100_0_1.LOG
   Prev: logs\CRVRP_10-3-7-100_0_0.LOG  Default: 
Changed value of parameter Seed to 1645272409
   Prev: 1283065497  Min: 0  Max: 2000000000  Default: 0
Parameter Threads unchanged
   Value: 2  Min: 0  Max: 1024  Default: 0
Parameter TimeLimit unchanged
   Value: 600.0  Min: 0.0  Max: inf  Default: inf
Parameter Symmetry unchanged
   Value: 2  Min: -1  Max: 2  Default: -1
Parameter Cuts unchanged
   Value: 2  Min: -1  Max: 3  Default: -1
Parameter PreDepRow unchanged
   Value: 1  Min: -1  Max: 1  Default: -1
Parameter ScaleFlag unchanged
   Value: 1  Min: -1  Max: 3  Default: -1
Parameter NormAdjust unchanged
   Value: 0  Min: -1  Max: 3  Default: -1
Gurobi Optimizer version 9.0.2 build v9.0.2rc0 (win64)
Optimize a model with 6904 rows, 3980 columns and 27872 nonzeros
Model fingerprint: 0x38c2de8d
Variable types: 72 continuous, 3908 integer (2612 binary)
Coefficient statistics:
  Matrix range     [1e+00, 1e+06]
  Objective range  [1e+00, 1e+00]
  Bounds range     [1e+00, 1e+04]
  RHS range        [1e+00, 1e+06]
Presolve removed 5866 rows and 3062 columns
Presolve time: 0.21s
Presolved: 1038 rows, 918 columns, 7550 nonzeros
Variable types: 26 continuous, 892 integer (772 binary)

Root relaxation: objective 9.699235e+01, 555 iterations, 0.05 seconds

    Nodes    |    Current Node    |     Objective Bounds      |     Work
 Expl Unexpl |  Obj  Depth IntInf | Incumbent    BestBd   Gap | It/Node Time

     0     0   96.99235    0   50          -   96.99235      -     -    0s
     0     0  109.51561    0   92          -  109.51561      -     -    0s
H    0     0                     304.2618707  109.51561  64.0%     -    0s
H    0     0                     216.8282685  109.51561  49.5%     -    0s
     0     0  111.79457    0   74  216.82827  111.79457  48.4%     -    0s
H    0     0                     206.9157149  111.79457  46.0%     -    0s
     0     0  111.82702    0   87  206.91571  111.82702  46.0%     -    1s
     0     0  111.82702    0   89  206.91571  111.82702  46.0%     -    1s
     0     0  112.65091    0   86  206.91571  112.65091  45.6%     -    1s
H    0     0                     206.7651099  112.65091  45.5%     -    1s
     0     0  112.71707    0   86  206.76511  112.71707  45.5%     -    1s
     0     0  112.71707    0   86  206.76511  112.71707  45.5%     -    1s
     0     0  114.94705    0   99  206.76511  114.94705  44.4%     -    2s
     0     0  115.23873    0   90  206.76511  115.23873  44.3%     -    2s
     0     0  115.26481    0  100  206.76511  115.26481  44.3%     -    2s
     0     0  116.60347    0  100  206.76511  116.60347  43.6%     -    2s
     0     0  116.63144    0   96  206.76511  116.63144  43.6%     -    3s
     0     0  116.63144    0   99  206.76511  116.63144  43.6%     -    3s
     0     0  116.82718    0  100  206.76511  116.82718  43.5%     -    3s
     0     0  116.95293    0   98  206.76511  116.95293  43.4%     -    3s
     0     0  117.18277    0   86  206.76511  117.18277  43.3%     -    4s
     0     0  117.18520    0   95  206.76511  117.18520  43.3%     -    4s
     0     0  117.25751    0   98  206.76511  117.25751  43.3%     -    4s
     0     0  117.26550    0   96  206.76511  117.26550  43.3%     -    4s
     0     0  117.42415    0   99  206.76511  117.42415  43.2%     -    5s
     0     0  117.44114    0  101  206.76511  117.44114  43.2%     -    5s
     0     0  117.44114    0  101  206.76511  117.44114  43.2%     -    5s
     0     0  117.44114    0  102  206.76511  117.44114  43.2%     -    6s
     0     0  117.44114    0   89  206.76511  117.44114  43.2%     -    6s
H    0     0                     205.1632595  117.68298  42.6%     -    6s
     0     2  117.68298    0   89  205.16326  117.68298  42.6%     -    6s
H    9    12                     203.7973094  118.25443  42.0%  88.0    7s
H   29    31                     203.7973094  118.25443  42.0%  50.4    7s
H   59    60                     201.9918440  118.25443  41.5%  45.8    7s
   296   276  156.79988   58   49  201.99184  118.50308  41.3%  35.7   10s
   742   580  130.80000   21   91  201.99184  120.12034  40.5%  32.7   15s
   748   584  163.09387   32   92  201.99184  120.13692  40.5%  32.4   20s
H  805   594                     201.9918440  120.13692  40.5%  36.9   22s
   976   679  140.05269   35   54  201.99184  120.13692  40.5%  40.9   25s
  1676  1010  184.11683   70   30  201.99184  120.57160  40.3%  38.2   30s
  2274  1269  127.48295   25   53  201.99184  121.05109  40.1%  39.0   35s
  3188  1858  165.98980   39   38  201.99184  121.97778  39.6%  39.2   40s
  4180  2647  133.59095   37   43  201.99184  122.81168  39.2%  37.8   45s
  5283  3534  144.22898   41   55  201.99184  123.45585  38.9%  38.1   50s
  6465  4438  190.27370   31   71  201.99184  123.88547  38.7%  37.5   56s
  7230  4952  179.91056   65   30  201.99184  124.19570  38.5%  38.5   60s
  8436  5881  159.75019   42   71  201.99184  124.56670  38.3%  37.5   65s
  9678  6839  157.96308   42   60  201.99184  125.00972  38.1%  36.4   70s
 10688  7622  169.26588   44   56  201.99184  125.37701  37.9%  36.2   75s
 11966  8470 infeasible   60       201.99184  125.70882  37.8%  35.5   80s
 13016  9275 infeasible   91       201.99184  126.02099  37.6%  35.4   85s
 13628  9677  139.48952   36   51  201.99184  126.14780  37.5%  35.7   90s
 14862 10707  167.32440   47   54  201.99184  126.31120  37.5%  35.2   96s
 16124 11707  143.09354   55   70  201.99184  126.53694  37.4%  34.6  100s
 17563 12802  179.59242   92   86  201.99184  126.87630  37.2%  34.0  105s
 18787 13768  130.51552   34   68  201.99184  127.17128  37.0%  34.1  110s
 20259 14827  184.95624   39   42  201.99184  127.37166  36.9%  33.7  116s
 21287 15676  161.38989   49   40  201.99184  127.56509  36.8%  33.6  120s
 22501 16553  145.84291   32   73  201.99184  127.75538  36.8%  33.6  125s
 23701 17395  197.60329   92   17  201.99184  127.88669  36.7%  33.5  130s
 24865 18285     cutoff   97       201.99184  128.03211  36.6%  33.5  135s
 26340 19360  149.11965   27   68  201.99184  128.18694  36.5%  33.2  140s
 27668 20489  146.16095   34   84  201.99184  128.31045  36.5%  33.1  145s
 29256 21690     cutoff  100       201.99184  128.43905  36.4%  32.8  150s
 30220 22364  168.81036   60   45  201.99184  128.55378  36.4%  32.8  155s
 31480 23281  194.96595   33   36  201.99184  128.65135  36.3%  32.9  160s
 32789 24307  165.22223   65   56  201.99184  128.79852  36.2%  32.9  165s
 33863 25142  141.04286   40   68  201.99184  128.86780  36.2%  33.0  170s
 35399 26235  169.56209   46   55  201.99184  128.94957  36.2%  32.9  175s
 36467 27073  142.89698   41   67  201.99184  129.02457  36.1%  32.9  180s
 37697 27959  151.25316   47   65  201.99184  129.08539  36.1%  32.9  185s
 39000 28902  158.09226   30   42  201.99184  129.15102  36.1%  32.9  190s
 40437 29967  163.20999   51   26  201.99184  129.22358  36.0%  32.8  195s
 41498 30706 infeasible   73       201.99184  129.26466  36.0%  32.9  200s
 42685 31665  169.82503   64   39  201.99184  129.37487  36.0%  32.9  205s
 43793 32367  141.82609   33   63  201.99184  129.41566  35.9%  32.9  210s
 44741 33062 infeasible   57       201.99184  129.45530  35.9%  33.0  215s
 45534 33673  144.50683   42   39  201.99184  129.52049  35.9%  33.1  220s
 46503 34480  179.63604   77   58  201.99184  129.55856  35.9%  33.1  225s
 47453 35048  148.09401   49   63  201.99184  129.61360  35.8%  33.0  230s
 48618 35891  135.57113   30   66  201.99184  129.69735  35.8%  33.0  235s
 49419 36550  151.70960   46   48  201.99184  129.72282  35.8%  33.0  240s
 50494 37347  143.31765   55   58  201.99184  129.76556  35.8%  32.9  245s
 51357 38005  143.32116   42   74  201.99184  129.79945  35.7%  33.0  250s
 52316 38707 infeasible   50       201.99184  129.84271  35.7%  33.1  255s
 53466 39633  140.18738   37   87  201.99184  129.89531  35.7%  33.0  260s
 54344 40223  189.80601   56   54  201.99184  129.93873  35.7%  33.0  265s
 55640 41226 infeasible   47       201.99184  130.01236  35.6%  32.9  270s
H56097 40773                     199.5778786  130.02270  34.9%  32.9  273s
H56158 40845                     199.5778785  130.02617  34.8%  32.9  274s
 56246 40911  145.40040   68   78  199.57788  130.03262  34.8%  32.9  275s
 56817 41347  143.57343   24   63  199.57788  130.05465  34.8%  32.9  281s
 57442 41867  196.49746   63   45  199.57788  130.08226  34.8%  32.9  285s
 58352 42513  149.66607   41   49  199.57788  130.12365  34.8%  32.9  290s
 59178 43153  137.46609   57   51  199.57788  130.15964  34.8%  33.0  295s
 60178 43802  157.39616   59   69  199.57788  130.20061  34.8%  33.0  301s
 60909 44363  175.69929   47   49  199.57788  130.22252  34.8%  33.1  305s
 61785 44952  152.62586   26   78  199.57788  130.26638  34.7%  33.1  310s
 62871 45772  140.31421   38   78  199.57788  130.31730  34.7%  33.1  315s
 63731 46399  150.78259   48   40  199.57788  130.35631  34.7%  33.1  320s
 64831 47199  143.01361   45   50  199.57788  130.39380  34.7%  33.1  325s
 65951 48021  134.48644   28   78  199.57788  130.43711  34.6%  33.1  331s
 66884 48711  150.78259   47   38  199.57788  130.48201  34.6%  33.0  335s
 67914 49462  142.00480   32   56  199.57788  130.52458  34.6%  33.0  340s
 68818 49955  132.42231   36   86  199.57788  130.55661  34.6%  33.0  345s
 69909 50935  138.14212   37   68  199.57788  130.61367  34.6%  33.0  350s
 70863 51552  152.06702   38   39  199.57788  130.65739  34.5%  33.1  356s
 71464 52092  158.26522   62   71  199.57788  130.68037  34.5%  33.0  360s
 72271 52664  186.97525   56   34  199.57788  130.71621  34.5%  33.0  365s
 73002 53195  144.06096   51   62  199.57788  130.73535  34.5%  33.1  370s
 73959 53963  184.30462   69   45  199.57788  130.76187  34.5%  33.1  375s
 75075 54748  141.72131   35   74  199.57788  130.79666  34.5%  33.1  381s
 75888 55351  160.35006   59   60  199.57788  130.82985  34.4%  33.1  385s
 76979 56175  196.10826   50   39  199.57788  130.86715  34.4%  33.1  390s
 77782 56700  150.01038   50   53  199.57788  130.91444  34.4%  33.1  395s
 78717 57361  133.11887   35   73  199.57788  130.95047  34.4%  33.1  400s
 79425 57985  173.08448   54   47  199.57788  130.98300  34.4%  33.2  405s
 80444 58745  131.26528   34   61  199.57788  131.03287  34.3%  33.2  410s
 81505 59510  172.10944   57   68  199.57788  131.08282  34.3%  33.2  415s
 82536 60282  178.80692   43   52  199.57788  131.12874  34.3%  33.2  420s
 83474 60910  146.51844   45   42  199.57788  131.16433  34.3%  33.2  426s
 84279 61514  170.55875   77   24  199.57788  131.18241  34.3%  33.2  430s
 85236 62236  150.98008   48   62  199.57788  131.21067  34.3%  33.2  435s
 86129 62881     cutoff   56       199.57788  131.24111  34.2%  33.3  440s
 86862 63353  186.34157   45   57  199.57788  131.28056  34.2%  33.3  445s
 87787 64000     cutoff   69       199.57788  131.33576  34.2%  33.3  450s
 88968 64897  150.18589   50   48  199.57788  131.38365  34.2%  33.4  455s
 89925 65583  169.81958   86   57  199.57788  131.42926  34.1%  33.4  460s
 90840 66258  155.54255   55   64  199.57788  131.45416  34.1%  33.4  465s
 91867 66933  139.10512   30   78  199.57788  131.48493  34.1%  33.4  470s
 92882 67770  143.37923   36   73  199.57788  131.52128  34.1%  33.4  475s
 94044 68518  134.29343   28   78  199.57788  131.55539  34.1%  33.4  480s
 95038 69309  184.68835   59   41  199.57788  131.59726  34.1%  33.4  486s
 96209 70205  152.91109   41   49  199.57788  131.62956  34.0%  33.3  490s
 97008 70817  142.14972   40   85  199.57788  131.65466  34.0%  33.3  495s
 98176 71568  150.35300   60   71  199.57788  131.70479  34.0%  33.3  500s
 99241 72410  183.47793   44   17  199.57788  131.75034  34.0%  33.4  505s
 100407 73234 infeasible   59       199.57788  131.77538  34.0%  33.3  510s
 101120 73748  151.95528   49   37  199.57788  131.79905  34.0%  33.3  516s
 101980 74441  172.68593   92   41  199.57788  131.81973  34.0%  33.3  520s
 102544 74829 infeasible   62       199.57788  131.83198  33.9%  33.3  525s
 103543 75412  198.77470   65   34  199.57788  131.86417  33.9%  33.4  530s
 104483 76108  181.99212  103   26  199.57788  131.88871  33.9%  33.3  535s
 105337 76764  175.20398   78   42  199.57788  131.90919  33.9%  33.3  540s
 106469 77582  169.57677   72   55  199.57788  131.94598  33.9%  33.4  545s
 107575 78368  145.10943   58   68  199.57788  131.97645  33.9%  33.4  550s
 108591 79042  154.36189   35   54  199.57788  132.01328  33.9%  33.4  555s
 109511 79715  158.40586   53   42  199.57788  132.03197  33.8%  33.3  560s
 110555 80448  135.13835   52   90  199.57788  132.06551  33.8%  33.4  565s
 111447 81059  132.57029   35   56  199.57788  132.09454  33.8%  33.4  570s
 112504 81779  145.51129   37   68  199.57788  132.12124  33.8%  33.4  575s
 113611 82620  146.55323   49   70  199.57788  132.14880  33.8%  33.4  580s
 114875 83582 infeasible   98       199.57788  132.16869  33.8%  33.3  585s
 115830 84225  197.06255   80   41  199.57788  132.20161  33.8%  33.3  590s
 116769 84821  147.95216   48   54  199.57788  132.23322  33.7%  33.3  595s
 117635 85374     cutoff   50       199.57788  132.25223  33.7%  33.4  600s

Cutting planes:
  Learned: 13
  Gomory: 24
  Cover: 40
  Implied bound: 112
  Projected implied bound: 3
  MIR: 25
  Flow cover: 67
  GUB cover: 8
  Inf proof: 22
  Zero half: 17
  RLT: 26
  Relax-and-lift: 2

Explored 117655 nodes (3929670 simplex iterations) in 600.01 seconds
Thread count was 2 (of 4 available processors)

Solution count 10: 199.578 199.578 201.992 ... 304.262

Time limit reached
Best objective 1.995778785099e+02, best bound 1.322522337045e+02, gap 33.7340%
Discarded solution information

Gurobi 9.0.2 (win64) logging started Fri Oct 29 14:36:23 2021

Changed value of parameter LogFile to logs\CRVRP_10-3-7-100_0_1.LOG
   Prev: logs\CRVRP_10-3-7-100_0_0.LOG  Default: 
Changed value of parameter Seed to 533813613
   Prev: 1300490001  Min: 0  Max: 2000000000  Default: 0
Parameter Threads unchanged
   Value: 2  Min: 0  Max: 1024  Default: 0
Parameter TimeLimit unchanged
   Value: 60.0  Min: 0.0  Max: inf  Default: inf
Parameter Symmetry unchanged
   Value: 2  Min: -1  Max: 2  Default: -1
Parameter Cuts unchanged
   Value: 2  Min: -1  Max: 3  Default: -1
Parameter PreDepRow unchanged
   Value: 1  Min: -1  Max: 1  Default: -1
Parameter ScaleFlag unchanged
   Value: 1  Min: -1  Max: 3  Default: -1
Parameter NormAdjust unchanged
   Value: 0  Min: -1  Max: 3  Default: -1
Gurobi Optimizer version 9.0.2 build v9.0.2rc0 (win64)
Optimize a model with 2815 rows, 1796 columns and 12549 nonzeros
Model fingerprint: 0x3b516979
Variable types: 48 continuous, 1748 integer (1172 binary)
Coefficient statistics:
  Matrix range     [1e+00, 1e+06]
  Objective range  [1e+00, 1e+00]
  Bounds range     [1e+00, 1e+04]
  RHS range        [1e+00, 1e+06]
Presolve removed 1871 rows and 1077 columns
Presolve time: 0.07s
Presolved: 944 rows, 719 columns, 6062 nonzeros
Variable types: 21 continuous, 698 integer (580 binary)

Root relaxation: objective 3.147151e+03, 657 iterations, 0.02 seconds

    Nodes    |    Current Node    |     Objective Bounds      |     Work
 Expl Unexpl |  Obj  Depth IntInf | Incumbent    BestBd   Gap | It/Node Time

     0     0 3147.15139    0   46          - 3147.15139      -     -    0s
     0     0 3202.05433    0   86          - 3202.05433      -     -    0s
H    0     0                    9471.0888773 3202.05433  66.2%     -    0s
H    0     0                    6571.9567341 3202.05433  51.3%     -    0s
     0     0 3294.19131    0   75 6571.95673 3294.19131  49.9%     -    0s
     0     0 3601.31872    0   90 6571.95673 3601.31872  45.2%     -    0s
     0     0 3602.42443    0   90 6571.95673 3602.42443  45.2%     -    0s
     0     0 3602.42443    0   91 6571.95673 3602.42443  45.2%     -    0s
     0     0 3660.69879    0   84 6571.95673 3660.69879  44.3%     -    0s
     0     0 3660.76724    0   81 6571.95673 3660.76724  44.3%     -    0s
     0     0 3662.80403    0  103 6571.95673 3662.80403  44.3%     -    1s
     0     0 3662.80403    0   97 6571.95673 3662.80403  44.3%     -    1s
     0     2 3663.07792    0   97 6571.95673 3663.07792  44.3%     -    1s
H   57    61                    5905.0995165 3779.08861  36.0%  88.2    2s
H  494   424                    5875.4266676 3779.79130  35.7%  44.9    3s
H  639   460                    5509.8253732 3781.12198  31.4%  43.6    3s
   725   511 4953.22074   56   51 5509.82537 3781.20212  31.4%  40.5    5s
H  734   490                    5508.6210189 3781.20212  31.4%  40.0    8s
   758   508 3782.51003   18   52 5508.62102 3781.20212  31.4%  49.5   10s
H  918   581                    5346.3680353 3781.20212  29.3%  59.9   11s
  1461   828 4191.52969   36   28 5346.36804 3787.72498  29.2%  61.2   15s
H 2744  1504                    5338.3863182 3789.22109  29.0%  54.1   18s
  2990  1723 5101.61093   39   57 5338.38632 3789.63654  29.0%  55.2   20s
  5175  3269 4180.53914   74   34 5338.38632 3795.04168  28.9%  51.6   25s
H 5387  3359                    5283.7453427 3795.13282  28.2%  51.3   26s
  6849  4436 3847.36452   69   45 5283.74534 3796.64379  28.1%  48.2   30s
* 8091  5152              52    5249.5418471 3797.42334  27.7%  48.1   33s
  8868  5655 5078.57457   57   39 5249.54185 3798.08844  27.6%  47.7   35s
H 9240  5867                    5248.4998449 3798.27116  27.6%  48.1   36s
* 9523  5966              49    5238.3418932 3798.43351  27.5%  47.7   37s
 10700  6729 4930.18921   48   28 5238.34189 3799.30303  27.5%  47.4   40s
 12132  7567 infeasible   42      5238.34189 3799.78016  27.5%  47.1   45s
 14901  9533 4165.47618   65   40 5238.34189 3800.27634  27.5%  45.7   50s
 16751 10523 5057.29379   51   29 5238.34189 3800.69569  27.4%  46.3   55s
H18483 11594                    5234.9556683 3801.26479  27.4%  47.1   59s
 18695 11681 4532.59544   69   41 5234.95567 3801.33535  27.4%  47.0   60s

Cutting planes:
  Gomory: 14
  Cover: 21
  Implied bound: 9
  Projected implied bound: 1
  MIR: 33
  Flow cover: 39
  Zero half: 17
  RLT: 3
  Relax-and-lift: 3

Explored 18846 nodes (887810 simplex iterations) in 60.00 seconds
Thread count was 2 (of 4 available processors)

Solution count 10: 5234.96 5238.34 5248.5 ... 5875.43

Time limit reached
Best objective 5.234955668348e+03, best bound 3.801358977702e+03, gap 27.3851%
Discarded solution information

Gurobi 9.0.2 (win64) logging started Tue Nov  2 14:33:28 2021

Changed value of parameter LogFile to logs\CRVRP_10-3-7-100_0_1.LOG
   Prev: logs\CRVRP_10-3-7-100_0_0.LOG  Default: 
Changed value of parameter Seed to 820627963
   Prev: 783615422  Min: 0  Max: 2000000000  Default: 0
Parameter Threads unchanged
   Value: 2  Min: 0  Max: 1024  Default: 0
Parameter TimeLimit unchanged
   Value: 1800.0  Min: 0.0  Max: inf  Default: inf
Parameter Symmetry unchanged
   Value: 2  Min: -1  Max: 2  Default: -1
Parameter Cuts unchanged
   Value: 2  Min: -1  Max: 3  Default: -1
Parameter PreDepRow unchanged
   Value: 1  Min: -1  Max: 1  Default: -1
Parameter ScaleFlag unchanged
   Value: 1  Min: -1  Max: 3  Default: -1
Parameter NormAdjust unchanged
   Value: 0  Min: -1  Max: 3  Default: -1
Gurobi Optimizer version 9.0.2 build v9.0.2rc0 (win64)
Optimize a model with 2815 rows, 1796 columns and 12769 nonzeros
Model fingerprint: 0x2fac103f
Variable types: 48 continuous, 1748 integer (1172 binary)
Coefficient statistics:
  Matrix range     [1e+00, 1e+06]
  Objective range  [1e+00, 1e+00]
  Bounds range     [1e+00, 1e+04]
  RHS range        [1e+00, 1e+06]
Presolve removed 1887 rows and 1101 columns
Presolve time: 0.08s
Presolved: 928 rows, 695 columns, 5629 nonzeros
Variable types: 21 continuous, 674 integer (564 binary)

Root relaxation: objective 1.051858e+02, 601 iterations, 0.03 seconds

    Nodes    |    Current Node    |     Objective Bounds      |     Work
 Expl Unexpl |  Obj  Depth IntInf | Incumbent    BestBd   Gap | It/Node Time

     0     0  105.18583    0   21          -  105.18583      -     -    0s
     0     0  105.18583    0   45          -  105.18583      -     -    0s
     0     0  105.18583    0   34          -  105.18583      -     -    0s
     0     0  105.18583    0   18          -  105.18583      -     -    0s
H    0     0                     160.3275237  105.18583  34.4%     -    0s
H    0     0                     154.6874358  105.18583  32.0%     -    0s
     0     0  105.18583    0   18  154.68744  105.18583  32.0%     -    0s
     0     0  105.18583    0   24  154.68744  105.18583  32.0%     -    0s
H    0     0                     141.2764090  105.18583  25.5%     -    0s
H    0     0                     138.5307781  105.18583  24.1%     -    0s
     0     0  105.18583    0   24  138.53078  105.18583  24.1%     -    0s
     0     0  105.18583    0   21  138.53078  105.18583  24.1%     -    0s
     0     0  105.18583    0   20  138.53078  105.18583  24.1%     -    0s
H    0     0                     120.0222533  105.18583  12.4%     -    0s
     0     0  105.18583    0   22  120.02225  105.18583  12.4%     -    1s
     0     0  105.18583    0   51  120.02225  105.18583  12.4%     -    1s
     0     0  105.18583    0   35  120.02225  105.18583  12.4%     -    1s
H    0     0                     114.4245910  105.18583  8.07%     -    1s
     0     0  105.18583    0   34  114.42459  105.18583  8.07%     -    1s
     0     0  105.18583    0   26  114.42459  105.18583  8.07%     -    1s
H    0     0                     108.6210189  105.18583  3.16%     -    1s
     0     0  105.18583    0   24  108.62102  105.18583  3.16%     -    1s
     0     0  105.18583    0    7  108.62102  105.18583  3.16%     -    1s
     0     0  105.18583    0    7  108.62102  105.18583  3.16%     -    1s
     0     0  105.18583    0    8  108.62102  105.18583  3.16%     -    1s
     0     0  105.18583    0    8  108.62102  105.18583  3.16%     -    1s
